(declare-fun temp11394_2 () (_ BitVec 64))
(declare-fun temp11394_1 () (_ BitVec 64))
(declare-fun temp11394_4 () (_ BitVec 64))
(declare-fun temp11394_3 () (_ BitVec 64))
(declare-fun temp11394_5 () (_ BitVec 64))
(declare-fun var335690 () (_ BitVec 64))
(declare-fun temp11394_6 () (_ BitVec 64))
(declare-fun var3737398 () (_ BitVec 64))
(declare-fun var3936476 () (_ BitVec 64))
(declare-fun temp11394_7 () (_ BitVec 64))
(declare-fun var4720619 () (_ BitVec 64))
(declare-fun ARGNAME_input_NAMEEND_DIM () (_ BitVec 64))
(declare-fun temp11394_9 () (_ BitVec 64))
(declare-fun temp11394_8 () (_ BitVec 64))
(declare-fun var4787063 () (_ BitVec 64))
(declare-fun temp11394_10 () (_ BitVec 64))
(declare-fun var4853512 () (_ BitVec 64))
(declare-fun var4919057 () (_ BitVec 64))
(declare-fun temp11394_12 () (_ BitVec 64))
(declare-fun temp11394_11 () (_ BitVec 64))
(declare-fun temp11394_13 () (_ BitVec 64))
(declare-fun var5115639 () (_ BitVec 64))
(declare-fun temp11394_14 () (_ BitVec 64))
(declare-fun var4720680 () (_ BitVec 64))
(declare-fun var4720722 () (_ BitVec 64))
(declare-fun temp11394_16 () (_ BitVec 64))
(declare-fun temp11394_15 () (_ BitVec 64))
(declare-fun temp11394_17 () (_ BitVec 64))
(declare-fun var5573624 () (_ BitVec 64))
(declare-fun temp11394_18 () (_ BitVec 64))
(declare-fun var5573662 () (_ BitVec 64))
(declare-fun temp11394_19 () (_ BitVec 64))
(declare-fun var5573674 () (_ BitVec 64))
(declare-fun temp11394_20 () (_ BitVec 64))
(declare-fun temp11394_21 () (_ BitVec 64))
(declare-fun var4720667 () (_ BitVec 64))
(declare-fun var4720666 () (_ BitVec 64))
(declare-fun temp11394_22 () (_ BitVec 64))
(declare-fun var4720671 () (_ BitVec 64))
(declare-fun temp11394_23 () (_ BitVec 64))
(declare-fun var4720673 () (_ BitVec 64))
(declare-fun temp11394_24 () (_ BitVec 64))
(declare-fun temp11394_25 () (_ BitVec 64))
(declare-fun var6555854 () (_ BitVec 64))
(declare-fun temp11394_26 () (_ BitVec 64))
(declare-fun temp11394_27 () (_ BitVec 64))
(declare-fun var6555884 () (_ BitVec 64))
(declare-fun var6555931 () (_ BitVec 64))
(declare-fun var6555852 () (_ BitVec 64))
(declare-fun var270533 () (_ BitVec 64))
(declare-fun var270534 () (_ BitVec 64))
(declare-fun temp11394_28 () (_ BitVec 64))
(declare-fun var7217508 () (_ BitVec 64))
(declare-fun var7217549 () (_ BitVec 64))
(declare-fun var7410392 () (_ BitVec 64))
(declare-fun temp11394_29 () (_ BitVec 64))
(declare-fun var7410393 () (_ BitVec 64))
(assert (= temp11394_2 #x0000000000000000))
(assert (= temp11394_1 temp11394_2))
(assert (= temp11394_4 #x0000000000000000))
(assert (= temp11394_3 temp11394_4))
(assert (= temp11394_5 #x0000000000000005))
(assert (= var335690 temp11394_5))
(assert (= temp11394_6 #x0000000000000001))
(assert (= var3737398 temp11394_6))
(assert (= var3936476 var3737398))
(assert (= temp11394_7 #x0000000000000001))
(assert (= var4720619 (bvshl ARGNAME_input_NAMEEND_DIM temp11394_7)))
(assert (= temp11394_9 #x0000000000000000))
(assert (= temp11394_8 temp11394_9))
(assert (= var4787063 var4720619))
(assert (= temp11394_10 #x0000000000000005))
(assert (= var4853512 temp11394_10))
(assert (= var4919057 var4787063))
(assert (= temp11394_12 #x0000000000000000))
(assert (= temp11394_11 temp11394_12))
(assert (= temp11394_13 #x0000000000000000))
(assert (= var5115639 temp11394_13))
(assert (= temp11394_14 #x0000000000000000))
(assert (= var4720680 temp11394_14))
(assert (= var4720722 var4720680))
(assert (= temp11394_16 #x0000000000000000))
(assert (= temp11394_15 temp11394_16))
(assert (= temp11394_17 #x0000000000000001))
(assert (= var5573624 temp11394_17))
(assert (= temp11394_18 #x0000000000000000))
(assert (= var5573662 temp11394_18))
(assert (= temp11394_19 #x0000000000000000))
(assert (= var5573674 temp11394_19))
(assert (= temp11394_20 #x0000000000000000))
(assert (= var5573674 temp11394_20))
(assert (= temp11394_21 #x0000000000000000))
(assert (= var5573662 temp11394_21))
(assert (= var4720667 var4720722))
(assert (= var4720666 var4720667))
(assert (= temp11394_22 #x0000000000000001))
(assert (= var4720671 (bvand var4720666 temp11394_22)))
(assert (= temp11394_23 #x0000000000000000))
(assert (= var4720673
   (ite (= var4720671 temp11394_23) #x0000000000000001 #x0000000000000000)))
(assert (= temp11394_24 #x0000000000000001))
(assert (= var4720673 temp11394_24))
(assert (= temp11394_25 #x0000000000000001))
(assert (= var6555854 temp11394_25))
(assert (= temp11394_26 #x0000000000000000))
(assert (= temp11394_27 #x0000000000000002))
(assert (= var6555884 (ite (= var6555854 #x0000000000000001) temp11394_26 temp11394_27)))
(assert (= var6555931 var6555884))
(assert (= var6555852 var6555931))
(assert (= var270533 var6555852))
(assert (= var270534 var270533))
(assert (= temp11394_28 #x0000000000000000))
(assert (= var7217508 temp11394_28))
(assert (= var7217549 var7217508))
(assert (= var7410392 var270534))
(assert (= temp11394_29 #x0000000000000001))
(assert (= var7410393 temp11394_29))
(model-add temp11394_2 () (_ BitVec 64) #x0000000000000000)
(model-add temp11394_1 () (_ BitVec 64) #x0000000000000000)
(model-add temp11394_4 () (_ BitVec 64) #x0000000000000000)
(model-add temp11394_3 () (_ BitVec 64) #x0000000000000000)
(model-add temp11394_5 () (_ BitVec 64) #x0000000000000005)
(model-add var335690 () (_ BitVec 64) #x0000000000000005)
(model-add temp11394_6 () (_ BitVec 64) #x0000000000000001)
(model-add var3737398 () (_ BitVec 64) #x0000000000000001)
(model-add var3936476 () (_ BitVec 64) #x0000000000000001)
(model-add temp11394_7 () (_ BitVec 64) #x0000000000000001)
(model-add var4720619
           ()
           (_ BitVec 64)
           (concat ((_ extract 62 0) ARGNAME_input_NAMEEND_DIM) #b0))
(model-add temp11394_9 () (_ BitVec 64) #x0000000000000000)
(model-add temp11394_8 () (_ BitVec 64) #x0000000000000000)
(model-add var4787063
           ()
           (_ BitVec 64)
           (concat ((_ extract 62 0) ARGNAME_input_NAMEEND_DIM) #b0))
(model-add temp11394_10 () (_ BitVec 64) #x0000000000000005)
(model-add var4853512 () (_ BitVec 64) #x0000000000000005)
(model-add var4919057
           ()
           (_ BitVec 64)
           (concat ((_ extract 62 0) ARGNAME_input_NAMEEND_DIM) #b0))
(model-add temp11394_12 () (_ BitVec 64) #x0000000000000000)
(model-add temp11394_11 () (_ BitVec 64) #x0000000000000000)
(model-add temp11394_13 () (_ BitVec 64) #x0000000000000000)
(model-add var5115639 () (_ BitVec 64) #x0000000000000000)
(model-add temp11394_14 () (_ BitVec 64) #x0000000000000000)
(model-add var4720680 () (_ BitVec 64) #x0000000000000000)
(model-add var4720722 () (_ BitVec 64) #x0000000000000000)
(model-add temp11394_16 () (_ BitVec 64) #x0000000000000000)
(model-add temp11394_15 () (_ BitVec 64) #x0000000000000000)
(model-add temp11394_17 () (_ BitVec 64) #x0000000000000001)
(model-add var5573624 () (_ BitVec 64) #x0000000000000001)
(model-add temp11394_18 () (_ BitVec 64) #x0000000000000000)
(model-add var5573662 () (_ BitVec 64) #x0000000000000000)
(model-add temp11394_19 () (_ BitVec 64) #x0000000000000000)
(model-add var5573674 () (_ BitVec 64) #x0000000000000000)
(model-add temp11394_20 () (_ BitVec 64) #x0000000000000000)





